%Chk=heme_cys_small_opt.chk
%Mem=3000MB
%NProcShared=2
# B3LYP/6-31G* Geom=PrintInputOrient Integral=(Grid=UltraFine) Opt
 
CLR
 
4  2
N         -11.557  -20.109  -11.995
C         -12.218  -21.241  -11.354
C         -11.213  -21.994  -10.487
O         -10.211  -22.493  -10.993
C         -12.773  -22.206  -12.382
S         -13.590  -23.609  -11.643
C         -15.560  -19.721  -10.646
C         -16.452  -22.296  -14.515
C         -16.814  -26.148  -11.820
C         -15.552  -23.643   -7.998
C         -15.597  -20.050  -12.014
C         -15.544  -19.183  -13.121
C         -15.780  -19.956  -14.223
C         -15.976  -21.251  -13.764
C         -15.811  -19.471  -15.746
C         -15.268  -17.678  -13.142
C         -13.804  -17.380  -13.296
C         -13.448  -15.931  -13.415
O         -12.376  -15.641  -13.949
O         -14.209  -15.042  -13.060
C         -16.476  -23.657  -14.236
C         -16.842  -24.699  -15.129
C         -17.005  -25.840  -14.293
C         -16.724  -25.385  -12.977
C         -17.004  -24.559  -16.634
C         -17.367  -27.178  -14.634
C         -17.205  -27.926  -15.896
C         -16.363  -25.903  -10.529
C         -16.330  -26.830   -9.514
C         -15.986  -26.120   -8.342
C         -15.833  -24.777   -8.768
C         -16.618  -28.367   -9.654
C         -15.806  -26.519   -7.029
C         -15.086  -27.625   -6.526
C         -15.561  -22.334   -8.362
C         -15.431  -21.280   -7.478
C         -15.279  -20.141   -8.213
C         -15.329  -20.563   -9.563
C         -15.447  -21.345   -5.937
C         -15.092  -18.715   -7.649
C         -13.578  -18.419   -7.435
C         -13.146  -17.057   -6.844
O         -12.106  -16.955   -6.219
O         -13.867  -16.061   -7.005
N         -15.862  -21.317  -12.447
N         -16.415  -24.109  -12.967
N         -16.069  -24.686  -10.099
N         -15.495  -21.891   -9.605
Fe        -15.846  -23.032  -11.293
 
 
